NAME: a280
COMMENT: Tabu Search - tabusSize: 0.3 - neighborSize: 3
DIMENSION: 280
DISTANCE: 2752.0
EXECUTION_TIME: 1.028
TOUR_SECTION: 
256 255 252 209 210 207 208 206 205 204 213 212 211 214 215 218 216 217 220 221 222 219 223 224 225 226 227 228 229 230 251 250 245 246 231 232 233 234 235 236 237 238 239 240 241 242 243 244 247 249 248 278 279 3 2 280 1 4 277 276 5 6 7 9 8 10 11 12 13 14 24 23 25 22 26 27 28 29 30 31 32 33 34 35 36 37 38 39 40 41 42 43 60 61 118 117 115 114 116 86 84 85 66 65 64 63 62 59 44 45 46 47 48 49 50 51 52 53 54 55 56 57 58 68 69 67 70 71 72 73 74 75 77 78 79 76 82 83 88 87 113 112 111 110 108 104 109 89 81 80 90 91 92 93 94 95 96 97 98 99 100 101 102 103 105 106 107 173 174 161 162 163 172 171 170 169 168 167 166 165 164 188 189 190 186 187 185 184 183 182 175 160 159 158 157 119 120 121 122 123 124 125 126 127 128 21 20 19 18 17 133 132 131 130 129 154 155 153 156 152 151 177 176 181 180 179 178 150 149 148 147 146 145 199 198 197 193 191 192 194 195 196 201 200 202 203 144 143 142 141 140 139 138 137 136 135 134 270 269 268 267 266 265 264 263 262 261 272 271 16 15 273 274 275 260 259 258 257 254 253 
EOF